small2.txt
18
76.0 149.0
380.0 151.0
488.0 321.0
60.0 863.0
67.0 93.0
802.0 928.0
186.0 801.0
366.0 915.0
144.0 155.0
24.0 568.0
146.0 975.0
501.0 208.0
788.0 829.0
171.0 551.0
941.0 767.0
510.0 996.0
405.0 820.0
564.0 822.0