small2
20
95.0129 61.5432
23.1139 79.1937
60.6843 92.1813
48.5982 73.8207
89.1299 17.6266
76.2097 40.5706
45.6468 93.5470
1.8504 91.6904
82.1407 41.0270
44.4703 89.3650
25.0129 91.5432
73.1139 29.1937
30.6843 12.1813
78.5982 23.8207
19.1299 47.6266
26.2097 90.5706
35.6468 33.5470
14.8504 41.6904
89.1407 11.0270
39.4703 19.3650